package omp 40 # Please set this number as the number of threads of your computer

log HSMA2D3_1.out

processors * * 1
units lj
atom_style full
boundary p p f

region box block 0 100 0 100 0 30 
create_box 2 box
region middle block 0 100 0 100 0.8 29.2 
create_atoms 1 random 1200 667 middle # 667 is a random seed
create_atoms 2 random 400 536 middle # 536 is a random seed 

fix wallhi all wall/lj126 zhi 30 1 0.5 0.56123 units box  
fix walllo all wall/lj126 zlo 0 1 0.5 0.56123 units box 

variable temperature equal 1.0
variable epsilon equal 0.285714
variable coul_cut equal 15.0 # should not larger than Lz/2
group ani type 1
group cat type 2
mass 1 1
mass 2 1
set type 1 charge -1
set type 2 charge 3   

fix energy all nve
thermo 2000
thermo_style custom step temp ke pe etotal
###Soft potential
neighbor  2.0 bin    
pair_style soft 1.0
pair_coeff * * 0.0
variable prefactor equal ramp(0,30)
fix 1 all adapt 1 pair soft a * * v_prefactor
fix lgv1 all langevin ${temperature} ${temperature} 100.0 81
timestep 0.001
run 10000
unfix 1
unfix lgv1  

#This command is needed if one wants to compute the density of particles
#comm_modify cutoff 10

#turn on electrostatics

pair_style lj/cut/omp ${coul_cut}  # for the HSMA
#pair_style lj/cut/coul/long/omp ${coul_cut} ${coul_cut} # for the PPPM

pair_coeff * * 1.0 1.0 1.12246 
pair_modify shift yes

kspace_style HSMA2D 1.0e-5 1.3 0 6 40 4 55.0 89.0 0 0 # for the HSMA
#kspace_style pppm/omp 1.0e-5 # for the PPPM
#kspace_modify slab 4 # for the PPPM
 
dielectric ${epsilon}

neigh_modify delay 5 every 5 check yes one 5000 # defaults: page 100000 one 2000
thermo_modify line one
thermo 100

fix 2 all nvt temp 1.0 1.0 0.005

timestep 0.001

thermo_style custom step temp  evdwl ecoul elong epair
run 50000

# compute the MSD
compute msd cat msd com yes
variable twopoint equal c_msd[4]/6.0/(step*dt+1.0e-7)
fix store all vector 100 c_msd[4]
variable fitslope equal slope(f_store)/6.0/(100*dt)

# compute the density of cat
compute 1 cat chunk/atom bin/1d z lower 0.004 units reduced 
fix 1 cat ave/chunk 50 40000 2500000 1 density/number file HSMA_cat.density  

# compute the density of ani
compute 3 ani chunk/atom bin/1d z lower 0.004 units reduced 
fix 3 ani ave/chunk 50 40000 2500000 3 density/number file HSMA_ani.density  

thermo_style custom step temp c_msd[4] c_msd[3] v_fitslope etotal

# dump the information of particles
dump 5 all custom 200 HSMA.lammpstrj id type x y z 

run 100000

# compute the VACF
compute vacf cat vacf
fix  5 cat vector 1 c_vacf[4] 
variable  diff equal dt*trap(f_5)
thermo_style custom step temp c_vacf[4]

thermo 1

run 1000 